p edge 761 1029
v 1 2
v 2 3
v 3 4
v 4 5
v 5 6
v 6 7
v 7 8
v 8 9
v 9 10
v 10 11
v 11 12
v 12 13
v 13 14
v 14 15
v 15 16
v 16 17
v 17 18
v 18 19
v 19 20
v 20 21
v 21 22
v 22 23
v 23 24
v 24 25
v 25 26
v 26 27
v 27 28
v 28 29
v 29 30
v 30 31
v 31 32
v 32 33
v 33 34
v 34 35
v 35 36
v 36 37
v 37 38
v 38 39
v 39 40
v 40 41
v 41 42
v 42 43
v 43 44
v 44 45
v 45 46
v 46 47
v 47 48
v 48 49
v 49 50
v 50 51
v 51 52
v 52 53
v 53 54
v 54 55
v 55 56
v 56 57
v 57 58
v 58 59
v 59 60
v 60 61
v 61 62
v 62 63
v 63 64
v 64 65
v 65 66
v 66 67
v 67 68
v 68 69
v 69 70
v 70 71
v 71 72
v 72 73
v 73 74
v 74 75
v 75 76
v 76 77
v 77 78
v 78 79
v 79 80
v 80 81
v 81 82
v 82 83
v 83 84
v 84 85
v 85 86
v 86 87
v 87 88
v 88 89
v 89 90
v 90 91
v 91 92
v 92 93
v 93 94
v 94 95
v 95 96
v 96 97
v 97 98
v 98 99
v 99 100
v 100 101
v 101 102
v 102 103
v 103 104
v 104 105
v 105 106
v 106 107
v 107 108
v 108 109
v 109 110
v 110 111
v 111 112
v 112 113
v 113 114
v 114 115
v 115 116
v 116 117
v 117 118
v 118 119
v 119 120
v 120 121
v 121 122
v 122 123
v 123 124
v 124 125
v 125 126
v 126 127
v 127 128
v 128 129
v 129 130
v 130 131
v 131 132
v 132 133
v 133 134
v 134 135
v 135 136
v 136 137
v 137 138
v 138 139
v 139 140
v 140 141
v 141 142
v 142 143
v 143 144
v 144 145
v 145 146
v 146 147
v 147 148
v 148 149
v 149 150
v 150 151
v 151 152
v 152 153
v 153 154
v 154 155
v 155 156
v 156 157
v 157 158
v 158 159
v 159 160
v 160 161
v 161 162
v 162 163
v 163 164
v 164 165
v 165 166
v 166 167
v 167 168
v 168 169
v 169 170
v 170 171
v 171 172
v 172 173
v 173 174
v 174 175
v 175 176
v 176 177
v 177 178
v 178 179
v 179 180
v 180 181
v 181 182
v 182 183
v 183 184
v 184 185
v 185 186
v 186 187
v 187 188
v 188 189
v 189 190
v 190 191
v 191 192
v 192 193
v 193 194
v 194 195
v 195 196
v 196 197
v 197 198
v 198 199
v 199 0
v 200 1
v 201 2
v 202 3
v 203 4
v 204 5
v 205 6
v 206 7
v 207 8
v 208 9
v 209 10
v 210 11
v 211 12
v 212 13
v 213 14
v 214 15
v 215 16
v 216 17
v 217 18
v 218 19
v 219 20
v 220 21
v 221 22
v 222 23
v 223 24
v 224 25
v 225 26
v 226 27
v 227 28
v 228 29
v 229 30
v 230 31
v 231 32
v 232 33
v 233 34
v 234 35
v 235 36
v 236 37
v 237 38
v 238 39
v 239 40
v 240 41
v 241 42
v 242 43
v 243 44
v 244 45
v 245 46
v 246 47
v 247 48
v 248 49
v 249 50
v 250 51
v 251 52
v 252 53
v 253 54
v 254 55
v 255 56
v 256 57
v 257 58
v 258 59
v 259 60
v 260 61
v 261 62
v 262 63
v 263 64
v 264 65
v 265 66
v 266 67
v 267 68
v 268 69
v 269 70
v 270 71
v 271 72
v 272 73
v 273 74
v 274 75
v 275 76
v 276 77
v 277 78
v 278 79
v 279 80
v 280 81
v 281 82
v 282 83
v 283 84
v 284 85
v 285 86
v 286 87
v 287 88
v 288 89
v 289 90
v 290 91
v 291 92
v 292 93
v 293 94
v 294 95
v 295 96
v 296 97
v 297 98
v 298 99
v 299 100
v 300 101
v 301 102
v 302 103
v 303 104
v 304 105
v 305 106
v 306 107
v 307 108
v 308 109
v 309 110
v 310 111
v 311 112
v 312 113
v 313 114
v 314 115
v 315 116
v 316 117
v 317 118
v 318 119
v 319 120
v 320 121
v 321 122
v 322 123
v 323 124
v 324 125
v 325 126
v 326 127
v 327 128
v 328 129
v 329 130
v 330 131
v 331 132
v 332 133
v 333 134
v 334 135
v 335 136
v 336 137
v 337 138
v 338 139
v 339 140
v 340 141
v 341 142
v 342 143
v 343 144
v 344 145
v 345 146
v 346 147
v 347 148
v 348 149
v 349 150
v 350 151
v 351 152
v 352 153
v 353 154
v 354 155
v 355 156
v 356 157
v 357 158
v 358 159
v 359 160
v 360 161
v 361 162
v 362 163
v 363 164
v 364 165
v 365 166
v 366 167
v 367 168
v 368 169
v 369 170
v 370 171
v 371 172
v 372 173
v 373 174
v 374 175
v 375 176
v 376 177
v 377 178
v 378 179
v 379 180
v 380 181
v 381 182
v 382 183
v 383 184
v 384 185
v 385 186
v 386 187
v 387 188
v 388 189
v 389 190
v 390 191
v 391 192
v 392 193
v 393 194
v 394 195
v 395 196
v 396 197
v 397 198
v 398 199
v 399 0
v 400 1
v 401 2
v 402 3
v 403 4
v 404 5
v 405 6
v 406 7
v 407 8
v 408 9
v 409 10
v 410 11
v 411 12
v 412 13
v 413 14
v 414 15
v 415 16
v 416 17
v 417 18
v 418 19
v 419 20
v 420 21
v 421 22
v 422 23
v 423 24
v 424 25
v 425 26
v 426 27
v 427 28
v 428 29
v 429 30
v 430 31
v 431 32
v 432 33
v 433 34
v 434 35
v 435 36
v 436 37
v 437 38
v 438 39
v 439 40
v 440 41
v 441 42
v 442 43
v 443 44
v 444 45
v 445 46
v 446 47
v 447 48
v 448 49
v 449 50
v 450 51
v 451 52
v 452 53
v 453 54
v 454 55
v 455 56
v 456 57
v 457 58
v 458 59
v 459 60
v 460 61
v 461 62
v 462 63
v 463 64
v 464 65
v 465 66
v 466 67
v 467 68
v 468 69
v 469 70
v 470 71
v 471 72
v 472 73
v 473 74
v 474 75
v 475 76
v 476 77
v 477 78
v 478 79
v 479 80
v 480 81
v 481 82
v 482 83
v 483 84
v 484 85
v 485 86
v 486 87
v 487 88
v 488 89
v 489 90
v 490 91
v 491 92
v 492 93
v 493 94
v 494 95
v 495 96
v 496 97
v 497 98
v 498 99
v 499 100
v 500 101
v 501 102
v 502 103
v 503 104
v 504 105
v 505 106
v 506 107
v 507 108
v 508 109
v 509 110
v 510 111
v 511 112
v 512 113
v 513 114
v 514 115
v 515 116
v 516 117
v 517 118
v 518 119
v 519 120
v 520 121
v 521 122
v 522 123
v 523 124
v 524 125
v 525 126
v 526 127
v 527 128
v 528 129
v 529 130
v 530 131
v 531 132
v 532 133
v 533 134
v 534 135
v 535 136
v 536 137
v 537 138
v 538 139
v 539 140
v 540 141
v 541 142
v 542 143
v 543 144
v 544 145
v 545 146
v 546 147
v 547 148
v 548 149
v 549 150
v 550 151
v 551 152
v 552 153
v 553 154
v 554 155
v 555 156
v 556 157
v 557 158
v 558 159
v 559 160
v 560 161
v 561 162
v 562 163
v 563 164
v 564 165
v 565 166
v 566 167
v 567 168
v 568 169
v 569 170
v 570 171
v 571 172
v 572 173
v 573 174
v 574 175
v 575 176
v 576 177
v 577 178
v 578 179
v 579 180
v 580 181
v 581 182
v 582 183
v 583 184
v 584 185
v 585 186
v 586 187
v 587 188
v 588 189
v 589 190
v 590 191
v 591 192
v 592 193
v 593 194
v 594 195
v 595 196
v 596 197
v 597 198
v 598 199
v 599 0
v 600 1
v 601 2
v 602 3
v 603 4
v 604 5
v 605 6
v 606 7
v 607 8
v 608 9
v 609 10
v 610 11
v 611 12
v 612 13
v 613 14
v 614 15
v 615 16
v 616 17
v 617 18
v 618 19
v 619 20
v 620 21
v 621 22
v 622 23
v 623 24
v 624 25
v 625 26
v 626 27
v 627 28
v 628 29
v 629 30
v 630 31
v 631 32
v 632 33
v 633 34
v 634 35
v 635 36
v 636 37
v 637 38
v 638 39
v 639 40
v 640 41
v 641 42
v 642 43
v 643 44
v 644 45
v 645 46
v 646 47
v 647 48
v 648 49
v 649 50
v 650 51
v 651 52
v 652 53
v 653 54
v 654 55
v 655 56
v 656 57
v 657 58
v 658 59
v 659 60
v 660 61
v 661 62
v 662 63
v 663 64
v 664 65
v 665 66
v 666 67
v 667 68
v 668 69
v 669 70
v 670 71
v 671 72
v 672 73
v 673 74
v 674 75
v 675 76
v 676 77
v 677 78
v 678 79
v 679 80
v 680 81
v 681 82
v 682 83
v 683 84
v 684 85
v 685 86
v 686 87
v 687 88
v 688 89
v 689 90
v 690 91
v 691 92
v 692 93
v 693 94
v 694 95
v 695 96
v 696 97
v 697 98
v 698 99
v 699 100
v 700 101
v 701 102
v 702 103
v 703 104
v 704 105
v 705 106
v 706 107
v 707 108
v 708 109
v 709 110
v 710 111
v 711 112
v 712 113
v 713 114
v 714 115
v 715 116
v 716 117
v 717 118
v 718 119
v 719 120
v 720 121
v 721 122
v 722 123
v 723 124
v 724 125
v 725 126
v 726 127
v 727 128
v 728 129
v 729 130
v 730 131
v 731 132
v 732 133
v 733 134
v 734 135
v 735 136
v 736 137
v 737 138
v 738 139
v 739 140
v 740 141
v 741 142
v 742 143
v 743 144
v 744 145
v 745 146
v 746 147
v 747 148
v 748 149
v 749 150
v 750 151
v 751 152
v 752 153
v 753 154
v 754 155
v 755 156
v 756 157
v 757 158
v 758 159
v 759 160
v 760 161
v 761 162
e 245 1
e 512 1
e 209 2
e 255 2
e 520 3
e 512 4
e 493 5
e 483 6
e 55 7
e 279 7
e 358 7
e 503 7
e 686 7
e 735 7
e 11 8
e 25 8
e 378 9
e 409 9
e 644 9
e 22 10
e 94 10
e 144 10
e 152 10
e 223 10
e 228 10
e 233 10
e 248 10
e 280 10
e 285 10
e 441 10
e 464 10
e 512 10
e 542 10
e 572 10
e 580 10
e 606 10
e 618 10
e 651 10
e 703 10
e 708 10
e 728 10
e 737 10
e 761 10
e 250 12
e 409 12
e 300 13
e 90 14
e 693 14
e 300 15
e 506 15
e 509 15
e 512 15
e 533 15
e 61 16
e 586 16
e 250 17
e 728 18
e 245 19
e 374 20
e 397 20
e 548 20
e 397 21
e 534 21
e 88 22
e 171 22
e 192 22
e 280 22
e 315 22
e 357 22
e 377 22
e 397 22
e 491 22
e 494 22
e 677 22
e 761 22
e 281 23
e 27 24
e 360 24
e 414 24
e 429 24
e 477 24
e 34 25
e 306 25
e 373 25
e 492 25
e 493 25
e 528 25
e 640 25
e 750 25
e 245 26
e 391 26
e 90 28
e 93 29
e 106 29
e 685 29
e 137 30
e 561 30
e 272 31
e 397 31
e 518 31
e 553 31
e 76 32
e 397 33
e 521 35
e 718 36
e 137 37
e 342 37
e 554 37
e 558 38
e 137 39
e 54 40
e 86 40
e 261 40
e 457 40
e 514 40
e 657 41
e 761 42
e 512 43
e 47 44
e 158 45
e 686 46
e 307 47
e 444 47
e 155 48
e 512 49
e 132 50
e 461 50
e 512 50
e 657 50
e 158 51
e 203 52
e 238 52
e 461 52
e 552 53
e 184 54
e 267 54
e 338 54
e 457 54
e 538 54
e 216 56
e 378 56
e 400 56
e 409 56
e 610 56
e 531 57
e 623 57
e 62 58
e 92 58
e 390 58
e 426 58
e 523 58
e 587 58
e 190 59
e 155 60
e 120 61
e 587 62
e 351 63
e 184 64
e 458 65
e 587 65
e 277 66
e 482 66
e 77 67
e 180 67
e 351 67
e 358 67
e 551 68
e 747 68
e 130 69
e 488 69
e 761 69
e 419 70
e 459 70
e 137 71
e 190 72
e 395 72
e 521 72
e 552 72
e 761 72
e 362 73
e 137 74
e 516 75
e 153 76
e 162 76
e 225 76
e 615 76
e 656 76
e 124 77
e 129 77
e 158 77
e 169 77
e 181 77
e 252 77
e 255 77
e 326 77
e 351 77
e 478 77
e 547 77
e 568 77
e 620 77
e 665 77
e 693 77
e 728 77
e 754 77
e 159 78
e 183 78
e 334 78
e 438 78
e 646 79
e 137 80
e 512 81
e 696 82
e 493 83
e 378 84
e 504 85
e 159 86
e 200 86
e 246 86
e 556 86
e 493 87
e 212 89
e 328 89
e 265 90
e 288 90
e 324 90
e 371 90
e 529 90
e 693 90
e 712 90
e 354 91
e 358 91
e 228 93
e 362 93
e 320 95
e 483 95
e 202 96
e 560 97
e 412 98
e 521 98
e 600 98
e 639 98
e 493 99
e 693 99
e 707 100
e 229 101
e 179 102
e 307 103
e 482 103
e 162 104
e 296 105
e 378 105
e 409 105
e 588 105
e 626 107
e 158 108
e 681 109
e 158 110
e 291 110
e 632 110
e 653 110
e 139 111
e 420 111
e 122 112
e 427 112
e 588 113
e 436 114
e 393 115
e 334 116
e 298 117
e 321 117
e 666 118
e 652 119
e 730 119
e 686 120
e 493 121
e 252 122
e 283 122
e 478 122
e 551 122
e 204 123
e 208 123
e 386 123
e 530 123
e 633 123
e 158 124
e 169 124
e 358 124
e 607 124
e 750 125
e 514 126
e 458 127
e 393 128
e 567 129
e 137 131
e 351 132
e 461 132
e 171 133
e 478 134
e 520 134
e 228 135
e 527 135
e 572 135
e 723 135
e 137 136
e 615 136
e 138 137
e 168 137
e 194 137
e 238 137
e 264 137
e 268 137
e 275 137
e 286 137
e 304 137
e 362 137
e 393 137
e 397 137
e 403 137
e 429 137
e 437 137
e 449 137
e 515 137
e 520 137
e 521 137
e 525 137
e 539 137
e 549 137
e 557 137
e 581 137
e 639 137
e 651 137
e 701 137
e 706 137
e 759 137
e 557 138
e 657 138
e 148 139
e 158 139
e 245 139
e 333 139
e 351 139
e 355 139
e 486 139
e 596 139
e 603 139
e 635 139
e 663 139
e 672 139
e 724 139
e 750 140
e 218 141
e 358 141
e 368 141
e 478 141
e 543 141
e 594 141
e 620 141
e 656 141
e 666 141
e 735 141
e 198 142
e 378 142
e 485 142
e 514 142
e 560 142
e 573 142
e 272 143
e 320 143
e 483 143
e 618 144
e 509 145
e 694 146
e 750 147
e 377 149
e 397 149
e 536 149
e 155 150
e 623 151
e 631 153
e 158 154
e 244 155
e 426 155
e 435 155
e 473 155
e 546 155
e 614 155
e 667 155
e 729 155
e 166 156
e 383 156
e 435 156
e 521 156
e 593 156
e 171 157
e 240 157
e 397 157
e 477 157
e 520 157
e 602 157
e 634 157
e 748 157
e 159 158
e 180 158
e 223 158
e 228 158
e 229 158
e 241 158
e 340 158
e 351 158
e 358 158
e 367 158
e 370 158
e 505 158
e 514 158
e 516 158
e 520 158
e 521 158
e 566 158
e 567 158
e 568 158
e 586 158
e 590 158
e 623 158
e 657 158
e 669 158
e 686 158
e 689 158
e 693 158
e 200 159
e 229 159
e 384 159
e 450 159
e 505 159
e 555 159
e 623 159
e 493 160
e 693 161
e 184 163
e 342 164
e 609 165
e 657 165
e 421 167
e 418 168
e 696 168
e 243 169
e 252 169
e 478 169
e 485 169
e 489 169
e 551 169
e 559 169
e 560 169
e 245 170
e 232 171
e 335 171
e 605 171
e 636 171
e 735 171
e 761 171
e 266 172
e 510 172
e 686 172
e 205 173
e 653 173
e 184 174
e 236 174
e 392 174
e 334 175
e 519 176
e 572 176
e 447 177
e 514 177
e 260 178
e 356 178
e 591 178
e 704 178
e 229 179
e 358 180
e 567 180
e 735 180
e 358 181
e 728 181
e 393 182
e 652 183
e 262 184
e 269 184
e 276 184
e 290 184
e 319 184
e 373 184
e 413 184
e 474 184
e 533 184
e 629 184
e 682 184
e 731 184
e 375 185
e 757 185
e 477 186
e 524 186
e 455 187
e 595 188
e 397 189
e 381 190
e 409 191
e 397 192
e 207 193
e 378 193
e 436 193
e 348 195
e 521 196
e 274 197
e 724 197
e 478 199
e 317 200
e 358 200
e 250 201
e 396 201
e 423 201
e 673 202
e 461 203
e 208 204
e 230 205
e 401 205
e 509 206
e 435 208
e 530 208
e 302 209
e 725 209
e 591 210
e 615 210
e 693 211
e 328 212
e 512 213
e 707 214
e 666 215
e 355 217
e 521 219
e 228 220
e 493 220
e 657 221
e 377 222
e 672 223
e 688 223
e 356 224
e 761 226
e 311 227
e 378 228
e 393 228
e 425 228
e 435 228
e 512 228
e 513 228
e 535 228
e 565 228
e 572 228
e 577 228
e 595 228
e 618 228
e 431 229
e 433 229
e 458 229
e 518 229
e 526 229
e 537 229
e 578 229
e 586 229
e 587 229
e 639 229
e 658 229
e 705 229
e 731 229
e 751 229
e 351 230
e 401 230
e 291 231
e 522 231
e 750 234
e 305 235
e 393 236
e 290 237
e 334 238
e 438 238
e 459 238
e 461 238
e 472 238
e 505 238
e 623 238
e 711 238
e 468 239
e 469 239
e 512 239
e 662 239
e 668 239
e 743 239
e 547 242
e 302 243
e 358 243
e 466 243
e 479 243
e 547 243
e 345 245
e 439 245
e 528 245
e 603 245
e 659 245
e 736 245
e 753 245
e 557 247
e 521 249
e 257 250
e 409 250
e 423 250
e 588 250
e 381 251
e 358 252
e 551 252
e 642 252
e 657 252
e 693 252
e 358 253
e 610 254
e 686 255
e 378 256
e 595 258
e 351 259
e 541 261
e 560 263
e 404 266
e 551 270
e 707 270
e 378 271
e 428 272
e 512 273
e 761 273
e 724 274
e 365 275
e 398 275
e 563 275
e 608 275
e 574 276
e 629 276
e 738 276
e 352 277
e 493 277
e 649 277
e 393 278
e 661 278
e 452 279
e 583 279
e 604 279
e 393 280
e 357 281
e 666 282
e 693 284
e 342 286
e 638 286
e 735 286
e 754 286
e 591 287
e 693 288
e 686 289
e 720 289
e 761 291
e 339 292
e 458 292
e 587 292
e 409 293
e 393 294
e 358 295
e 478 295
e 378 296
e 693 297
e 761 298
e 568 299
e 545 300
e 585 300
e 661 300
e 679 300
e 693 300
e 663 301
e 358 302
e 416 302
e 547 302
e 358 303
e 482 305
e 482 307
e 494 307
e 509 308
e 390 309
e 351 310
e 313 311
e 493 312
e 660 312
e 710 312
e 715 312
e 746 312
e 661 313
e 557 314
e 718 316
e 482 317
e 381 318
e 744 321
e 348 322
e 434 322
e 481 322
e 704 322
e 383 323
e 712 324
e 327 325
e 621 325
e 720 325
e 759 325
e 380 328
e 484 328
e 597 328
e 634 328
e 716 328
e 728 329
e 693 330
e 482 331
e 438 332
e 438 334
e 467 334
e 711 334
e 719 334
e 758 334
e 601 335
e 735 336
e 397 337
e 697 338
e 410 341
e 521 341
e 667 343
e 369 344
e 618 346
e 735 347
e 704 348
e 623 349
e 752 349
e 477 350
e 576 350
e 358 351
e 379 351
e 420 351
e 568 351
e 637 351
e 693 351
e 735 351
e 358 353
e 402 358
e 477 358
e 494 358
e 567 358
e 669 358
e 673 358
e 693 358
e 735 358
e 755 358
e 536 359
e 540 359
e 659 359
e 409 361
e 586 361
e 618 362
e 705 363
e 587 364
e 515 366
e 558 366
e 485 369
e 741 372
e 377 375
e 397 376
e 397 377
e 419 377
e 536 377
e 409 378
e 462 378
e 610 378
e 611 378
e 624 378
e 669 379
e 456 381
e 460 382
e 435 383
e 686 383
e 578 384
e 722 384
e 737 385
e 744 387
e 623 388
e 720 389
e 426 390
e 471 390
e 617 392
e 432 393
e 473 393
e 493 393
e 512 393
e 661 393
e 678 393
e 680 393
e 732 393
e 536 394
e 744 395
e 419 397
e 472 397
e 485 397
e 532 397
e 536 397
e 538 397
e 540 397
e 623 397
e 657 397
e 686 397
e 707 397
e 708 397
e 651 399
e 696 399
e 472 405
e 654 406
e 713 407
e 609 408
e 622 408
e 686 408
e 411 409
e 496 409
e 569 409
e 588 409
e 610 409
e 630 409
e 644 409
e 521 410
e 674 414
e 558 415
e 693 417
e 497 419
e 536 419
e 639 419
e 686 419
e 663 420
e 661 421
e 582 422
e 447 424
e 587 426
e 646 428
e 463 429
e 520 430
e 526 433
e 651 435
e 676 435
e 619 436
e 693 440
e 651 441
e 693 441
e 521 442
e 521 443
e 587 445
e 471 446
e 533 448
e 744 451
e 566 453
e 536 454
e 567 455
e 587 458
e 639 458
e 664 458
e 750 458
e 461 459
e 461 460
e 502 461
e 623 461
e 728 461
e 551 465
e 648 470
e 750 470
e 639 472
e 683 474
e 693 475
e 682 476
e 524 477
e 693 478
e 651 480
e 704 481
e 721 482
e 742 482
e 570 485
e 654 485
e 657 485
e 659 485
e 681 485
e 751 487
e 744 488
e 623 490
e 626 490
e 675 490
e 507 493
e 598 493
e 612 493
e 639 493
e 661 493
e 671 493
e 695 493
e 696 493
e 734 493
e 707 495
e 654 497
e 509 498
e 618 499
e 504 500
e 571 500
e 615 501
e 641 502
e 599 503
e 733 505
e 728 508
e 514 509
e 651 509
e 547 511
e 527 512
e 562 512
e 657 512
e 538 514
e 623 514
e 693 514
e 681 517
e 521 520
e 639 520
e 657 520
e 686 520
e 711 520
e 728 520
e 761 520
e 657 521
e 674 521
e 686 521
e 761 521
e 586 525
e 627 529
e 657 536
e 686 536
e 578 537
e 623 537
e 693 538
e 697 538
e 693 544
e 625 547
e 707 547
e 735 547
e 650 549
e 750 550
e 652 551
e 657 551
e 677 552
e 714 556
e 657 557
e 670 558
e 690 558
e 655 560
e 657 560
e 728 561
e 718 562
e 693 564
e 735 567
e 693 571
e 595 575
e 686 579
e 741 582
e 639 584
e 686 587
e 741 587
e 693 589
e 639 591
e 683 592
e 663 596
e 686 599
e 760 599
e 761 600
e 720 606
e 661 613
e 653 616
e 741 618
e 694 619
e 735 620
e 754 620
e 639 623
e 686 623
e 707 623
e 728 623
e 735 623
e 677 628
e 657 639
e 702 639
e 741 639
e 759 639
e 651 643
e 693 645
e 666 647
e 661 651
e 687 651
e 692 651
e 705 651
e 730 652
e 726 654
e 708 657
e 676 661
e 665 663
e 699 666
e 739 674
e 693 676
e 714 676
e 709 681
e 727 683
e 693 684
e 693 686
e 696 686
e 735 686
e 708 691
e 745 691
e 728 693
e 707 698
e 707 700
e 713 704
e 720 717
e 750 722
e 735 728
e 756 728
e 749 737
e 761 740
